row=8;
column=8;
Board=[|0,0,0,0,4,5,0,0|0,3,0,0,0,0,0,0|1,0,0,0,2,0,6,0|1,2,0,0,0,1,6,0|1,4,0,0,4,1,0,8|1,0,0,1,0,0,7,0|1,0,3,0,0,0,7,0|0,0,0,0,7,1,7,7|];
right = [0,3,1,0,0,2,1,2];
bottom = [1,2,0,3,0,3,0,0];
